TYPE : Vertex Cover
DIMENSION: 39
EDGE_DATA_SECTION:
0 1
0 2
0 5
0 18
0 25
0 31
0 38
1 3
1 6
1 8
1 12
1 23
1 33
1 34
1 35
1 36
2 5
2 6
2 7
2 10
2 18
2 19
2 22
2 23
2 36
2 38
3 4
3 6
3 8
3 12
3 15
3 24
3 26
3 27
3 29
3 30
4 15
4 20
4 21
4 27
4 28
4 32
5 10
5 14
5 15
5 29
5 34
6 7
6 11
6 24
6 26
6 30
6 35
6 37
7 9
7 12
7 13
7 16
7 20
7 24
7 28
7 34
7 36
8 13
8 17
8 18
8 20
8 21
8 25
8 29
8 36
9 11
9 13
9 15
9 20
9 22
9 26
10 20
10 24
10 26
10 30
10 35
11 26
11 32
11 37
12 14
12 15
12 20
12 24
12 28
12 29
12 36
13 18
13 19
13 27
13 28
13 29
13 30
13 31
13 33
14 30
14 32
14 36
15 24
15 37
16 24
16 27
16 31
17 19
17 23
17 27
17 28
17 29
17 31
17 32
18 25
18 30
18 33
18 35
19 21
19 22
19 23
19 24
19 25
19 27
19 30
19 31
19 34
20 22
20 24
20 31
20 34
21 26
21 32
21 35
22 26
22 27
22 34
22 38
23 24
23 32
23 38
24 26
24 29
24 32
24 36
26 32
26 36
27 29
28 29
28 30
28 31
28 38
29 30
29 35
29 38
31 32
33 37
37 38
-1
VERTEX_DEGREE:
7.0 10.0 11.0 11.0 7.0 7.0 10.0 11.0 10.0 7.0 7.0 5.0 10.0 11.0 5.0 7.0 4.0 8.0 8.0 12.0 10.0 6.0 8.0 7.0 14.0 4.0 10.0 8.0 9.0 12.0 9.0 8.0 9.0 4.0 6.0 6.0 8.0 5.0 7.0
VERTEX_COVER:
0 1 2 3 4 5 6 8 9 12 13 16 17 18 19 20 24 26 27 28 30 32 34 35 36 37 38
EOF
